
Gurobi 11.0.3 (linux64, gurobi_cl) logging started Tue Mar 18 15:12:53 2025

Set parameter WLSAccessID
Set parameter WLSSecret
Set parameter LicenseID to value 2630295
Set parameter NodeLimit to value 500000
Set parameter MIPGap to value 0.005
Set parameter LogFile to value "./data/logs/C1_2FAT_20@ILP_GUROBI/graphmapping_4ab15a79.log"
Using license file /home/stu1/gurobi.lic
Academic license 2630295 - for non-commercial use only - registered to mi___@sis.hust.edu.vn

Gurobi Optimizer version 11.0.3 build v11.0.3rc0 (linux64 - "Ubuntu 24.04.1 LTS")
Copyright (c) 2024, Gurobi Optimization, LLC

Read LP format model from file /tmp/7160eb5e34da45988d2d4856db25f371-pulp.lp
Reading time = 0.01 seconds
OBJ: 2774 rows, 3901 columns, 23456 nonzeros

CPU model: 12th Gen Intel(R) Core(TM) i5-12500T, instruction set [SSE2|AVX|AVX2]
Thread count: 6 physical cores, 12 logical processors, using up to 12 threads

Academic license 2630295 - for non-commercial use only - registered to mi___@sis.hust.edu.vn
Optimize a model with 2774 rows, 3901 columns and 23456 nonzeros
Model fingerprint: 0x408cbc81
Variable types: 1 continuous, 3900 integer (3900 binary)
Coefficient statistics:
  Matrix range     [1e+00, 1e+02]
  Objective range  [1e-02, 4e+00]
  Bounds range     [1e+00, 1e+00]
  RHS range        [1e+00, 1e+02]
Found heuristic solution: objective 0.0000000
Presolve removed 116 rows and 41 columns
Presolve time: 0.02s
Presolved: 2658 rows, 3860 columns, 23240 nonzeros
Variable types: 0 continuous, 3860 integer (3860 binary)

Root relaxation: objective -7.560000e+01, 2178 iterations, 0.09 seconds (0.14 work units)

    Nodes    |    Current Node    |     Objective Bounds      |     Work
 Expl Unexpl |  Obj  Depth IntInf | Incumbent    BestBd   Gap | It/Node Time

     0     0  -75.60000    0  255    0.00000  -75.60000      -     -    0s
H    0     0                      -8.8750000  -75.60000   752%     -    0s
H    0     0                     -13.2750000  -75.60000   469%     -    0s
H    0     0                     -13.2875000  -75.60000   469%     -    0s
     0     0  -75.60000    0  300  -13.28750  -75.60000   469%     -    0s
H    0     0                     -13.3375000  -75.60000   467%     -    0s
H    0     0                     -17.6875000  -75.57509   327%     -    0s
H    0     0                     -17.7625000  -75.57509   325%     -    0s
     0     0  -75.57509    0  301  -17.76250  -75.57509   325%     -    0s
     0     0  -75.49949    0  298  -17.76250  -75.49949   325%     -    0s
     0     0  -75.38480    0  515  -17.76250  -75.38480   324%     -    1s
H    0     0                     -17.7875000  -75.38480   324%     -    1s
H    0     0                     -22.2500000  -75.37637   239%     -    1s
     0     0  -75.37637    0  448  -22.25000  -75.37637   239%     -    1s
     0     0  -75.37349    0  431  -22.25000  -75.37349   239%     -    1s
     0     0  -75.37307    0  417  -22.25000  -75.37307   239%     -    1s
     0     0  -75.37305    0  423  -22.25000  -75.37305   239%     -    1s
H    0     0                     -22.3000000  -75.04910   237%     -    2s
H    0     0                     -31.2250000  -75.04910   140%     -    2s
H    0     0                     -35.6875000  -75.04910   110%     -    2s
     0     0  -75.04910    0  446  -35.68750  -75.04910   110%     -    2s
     0     0  -74.33903    0  532  -35.68750  -74.33903   108%     -    3s
     0     0  -74.01306    0  552  -35.68750  -74.01306   107%     -    4s
     0     0  -73.78644    0  513  -35.68750  -73.78644   107%     -    4s
     0     0  -73.72717    0  559  -35.68750  -73.72717   107%     -    4s
     0     0  -73.70365    0  527  -35.68750  -73.70365   107%     -    5s
     0     0          -    0       -35.68750  -73.70365   107%     -    5s

Cutting planes:
  Gomory: 372
  Cover: 439
  Clique: 745
  MIR: 16
  GUB cover: 26
  Zero half: 272
  RLT: 300

Explored 1 nodes (41418 simplex iterations) in 5.18 seconds (5.64 work units)
Thread count was 12 (of 12 available processors)

Solution count 10: -35.6875 -31.225 -22.3 ... -13.275

Solve interrupted
Best objective -3.568750000000e+01, best bound -7.370000000000e+01, gap 106.5149%

Wrote result file '/tmp/7160eb5e34da45988d2d4856db25f371-pulp.sol'

